certificates/rado_a7_c269_N38.cnf
c Rad2 upper bound instance: x1 + 7*x2 - x3 = 269, interval [1,38]
p cnf 38 210
1 4 38 0
-1 -4 -38 0
2 5 38 0
-2 -5 -38 0
3 6 38 0
-3 -6 -38 0
4 7 38 0
-4 -7 -38 0
5 8 38 0
-5 -8 -38 0
6 9 38 0
-6 -9 -38 0
7 10 38 0
-7 -10 -38 0
1 11 37 0
-1 -11 -37 0
8 11 38 0
-8 -11 -38 0
2 12 37 0
-2 -12 -37 0
9 12 38 0
-9 -12 -38 0
3 13 37 0
-3 -13 -37 0
10 13 38 0
-10 -13 -38 0
4 14 37 0
-4 -14 -37 0
11 14 38 0
-11 -14 -38 0
5 15 37 0
-5 -15 -37 0
12 15 38 0
-12 -15 -38 0
6 16 37 0
-6 -16 -37 0
13 16 38 0
-13 -16 -38 0
7 17 37 0
-7 -17 -37 0
14 17 38 0
-14 -17 -38 0
1 18 36 0
-1 -18 -36 0
8 18 37 0
-8 -18 -37 0
15 18 38 0
-15 -18 -38 0
2 19 36 0
-2 -19 -36 0
9 19 37 0
-9 -19 -37 0
16 19 38 0
-16 -19 -38 0
3 20 36 0
-3 -20 -36 0
10 20 37 0
-10 -20 -37 0
17 20 38 0
-17 -20 -38 0
4 21 36 0
-4 -21 -36 0
11 21 37 0
-11 -21 -37 0
18 21 38 0
-18 -21 -38 0
5 22 36 0
-5 -22 -36 0
12 22 37 0
-12 -22 -37 0
19 22 38 0
-19 -22 -38 0
6 23 36 0
-6 -23 -36 0
13 23 37 0
-13 -23 -37 0
20 23 38 0
-20 -23 -38 0
7 24 36 0
-7 -24 -36 0
14 24 37 0
-14 -24 -37 0
21 24 38 0
-21 -24 -38 0
1 25 35 0
-1 -25 -35 0
8 25 36 0
-8 -25 -36 0
15 25 37 0
-15 -25 -37 0
22 25 38 0
-22 -25 -38 0
2 26 35 0
-2 -26 -35 0
9 26 36 0
-9 -26 -36 0
16 26 37 0
-16 -26 -37 0
23 26 38 0
-23 -26 -38 0
3 27 35 0
-3 -27 -35 0
10 27 36 0
-10 -27 -36 0
17 27 37 0
-17 -27 -37 0
24 27 38 0
-24 -27 -38 0
4 28 35 0
-4 -28 -35 0
11 28 36 0
-11 -28 -36 0
18 28 37 0
-18 -28 -37 0
25 28 38 0
-25 -28 -38 0
5 29 35 0
-5 -29 -35 0
12 29 36 0
-12 -29 -36 0
19 29 37 0
-19 -29 -37 0
26 29 38 0
-26 -29 -38 0
6 30 35 0
-6 -30 -35 0
13 30 36 0
-13 -30 -36 0
20 30 37 0
-20 -30 -37 0
27 30 38 0
-27 -30 -38 0
7 31 35 0
-7 -31 -35 0
14 31 36 0
-14 -31 -36 0
21 31 37 0
-21 -31 -37 0
28 31 38 0
-28 -31 -38 0
1 32 34 0
-1 -32 -34 0
8 32 35 0
-8 -32 -35 0
15 32 36 0
-15 -32 -36 0
22 32 37 0
-22 -32 -37 0
29 32 38 0
-29 -32 -38 0
2 33 34 0
-2 -33 -34 0
9 33 35 0
-9 -33 -35 0
16 33 36 0
-16 -33 -36 0
23 33 37 0
-23 -33 -37 0
30 33 38 0
-30 -33 -38 0
3 34 0
-3 -34 0
10 34 35 0
-10 -34 -35 0
17 34 36 0
-17 -34 -36 0
24 34 37 0
-24 -34 -37 0
31 34 38 0
-31 -34 -38 0
4 34 35 0
-4 -34 -35 0
11 35 0
-11 -35 0
18 35 36 0
-18 -35 -36 0
25 35 37 0
-25 -35 -37 0
32 35 38 0
-32 -35 -38 0
5 34 36 0
-5 -34 -36 0
12 35 36 0
-12 -35 -36 0
19 36 0
-19 -36 0
26 36 37 0
-26 -36 -37 0
33 36 38 0
-33 -36 -38 0
6 34 37 0
-6 -34 -37 0
13 35 37 0
-13 -35 -37 0
20 36 37 0
-20 -36 -37 0
27 37 0
-27 -37 0
34 37 38 0
-34 -37 -38 0
7 34 38 0
-7 -34 -38 0
14 35 38 0
-14 -35 -38 0
21 36 38 0
-21 -36 -38 0
28 37 38 0
-28 -37 -38 0
35 38 0
-35 -38 0
