certificates/rado_a7_c269_N38.drat
-37 -38 0
-11 -38 0
d -11 -14 -38 0
-38 0
35 0
-11 0
8 0
14 0
-32 0
29 0
-5 0
2 0
-26 0
23 0
37 0
-27 0
-12 0
-4 0
-25 0
-13 0
-18 0
-24 0
-19 0
-33 0
0
